210 300 147 141 126 113 114 128 122 137 121 110 148 138 117 147 109 128 105 146 135 119 115 131 120 105 116 121 143 101 104 131 148 125 146 148 112 134 125 134 121 120 118 143 108 135 113 142 112 119 137 122 112 126 102 132 132 143 127 124 119 105 129 141 131 150 112 117 133 111 126 128 131 144 121 113 129 134 104 115 127 116 111 140 142 139 146 148 105 123 146 149 102 125 113 133 149 125 125 131 110 100 134 142 144 129 129 147 112 134 137 114 150 148 103 115 110 149 113 116 146 108 114 149 107 102 131 105 127 130 111 112 130 119 128 124 148 106 145 134 140 105 148 113 103 100 103 138 150 116 103 145 149 143 143 131 145 149 110 146 128 146 107 108 114 135 106 111 116 125 146 105 131 143 144 108 144 147 146 117 137 124 136 109 141 103 140 135 101 125 104 103 120 137 136 135 146 116 120 111 142 115 142 147 133 135 104 126 105 124 117 116 